Test: fpga13_10_sat.cnf
Options: -no-inverting-opt -activity-nl-freq=1
WARNING: for repeatability, setting FPU to use double precision
============================[ Problem Statistics ]=============================
|                                                                             |
|  Number of symmetries:           28                                         |
|  Number of invertingSyms:         0                                         |
|  Number of variables:           195                                         |
|  Number of clauses:             905                                         |
|  Parse time:                   0.00 s                                       |
|                                                                             |
============================[ Search Statistics ]==============================
| Conflicts |          ORIGINAL         |          LEARNT          | Progress |
|           |    Vars  Clauses Literals |    Limit  Clauses Lit/Cl |          |
===============================================================================
|       100 |     195      905     2440 |      331      271     47 |  0.003 % |
===============================================================================
restarts              : 2
conflicts             : 183            (45750 /sec)
symconflicts          : 62             (15500 /sec)
decisions             : 439            (0.00 % random) (109750 /sec)
propagations          : 3313           (828250 /sec)
sympropagations       : 299            (74750 /sec)
conflict literals     : 7201           (0.99 % deleted)
literals     : 7201           (0.99 % deleted)

HEURISTIC USAGES
random                : 0           
activity w/ lookahead : 0           
activity no lookahead : 438         
original sp           : 0           
sym count             : 0           

Memory used           : 5.00 MB
CPU time              : 0.004 s

SATISFIABLE
